(set-logic QF_BV)
(declare-fun _substvar_630_ () (_ BitVec 16))
(declare-fun _substvar_626_ () (_ BitVec 16))
(declare-fun _substvar_1229_ () (_ BitVec 16))
(declare-fun _substvar_622_ () (_ BitVec 16))
(declare-fun _substvar_618_ () (_ BitVec 16))
(declare-fun _substvar_1104_ () (_ BitVec 16))
(declare-fun _substvar_636_ () (_ BitVec 16))
(declare-fun _substvar_641_ () (_ BitVec 16))
(declare-fun _substvar_1225_ () (_ BitVec 16))
(declare-fun _substvar_1234_ () (_ BitVec 16))
(declare-fun _substvar_635_ () (_ BitVec 16))
(declare-fun _substvar_1232_ () (_ BitVec 16))
(declare-fun _substvar_640_ () (_ BitVec 16))
(assert (let ( (?v_17 ((_ zero_extend 16) _substvar_641_))) (let ((?v_15 (bvadd (_ bv0 32) (bvsub (bvadd (bvadd (_ bv0 32) ?v_17) ((_ zero_extend 16) _substvar_640_)) (_ bv0 32))))) (let ((?v_1 (bvadd ?v_15 (_ bv4 32))) (?v_23 ((_ zero_extend 16) _substvar_636_))) (let ((?v_21 (bvadd ?v_1 (bvsub (bvadd (bvadd (bvadd ?v_1 (_ bv53 32)) ?v_23) ((_ zero_extend 16) _substvar_635_)) ?v_1)))) (let ((?v_2 (bvadd ?v_21 (_ bv4 32)))) (let ((?v_27 (bvadd ?v_2 (bvsub (bvadd (bvadd (bvadd ?v_2 (_ bv70 32)) (_ bv0 32)) ((_ zero_extend 16) _substvar_630_)) ?v_2)))) (let ((?v_3 (bvadd ?v_27 (_ bv4 32)))) (let ((?v_33 (bvadd ?v_3 (bvsub (bvadd (bvadd (bvadd ?v_3 (_ bv59 32)) (_ bv0 32)) ((_ zero_extend 16) _substvar_626_)) ?v_3)))) (let ((?v_4 (bvadd ?v_33 (_ bv4 32)))) (let ((?v_39 (bvadd ?v_4 (bvsub (bvadd (bvadd (bvadd ?v_4 (_ bv63 32)) (_ bv0 32)) ((_ zero_extend 16) _substvar_622_)) ?v_4)))) (let ((?v_5 (bvadd ?v_39 (_ bv4 32)))) (let ((?v_44 (bvadd ?v_5 (bvsub (bvadd (bvadd (bvadd ?v_5 (_ bv64 32)) (_ bv0 32)) ((_ zero_extend 16) _substvar_618_)) ?v_5)))) (let ((?v_6 (bvadd ?v_44 (_ bv4 32)))) (let ((?v_51 (bvadd ?v_6 (_ bv0 32)))) (let ((?v_7 (bvadd ?v_51 (_ bv4 32)))) (let ((?v_53 (bvadd ?v_7 (_ bv0 32)))) (let ((?v_8 (bvadd ?v_53 (_ bv4 32))) (?v_52 ((_ zero_extend 16) _substvar_1229_))) (let ((?v_55 (bvadd ?v_8 (bvsub (bvadd (bvadd (bvadd ?v_8 (_ bv62 32)) ?v_52) ((_ zero_extend 16) _substvar_1225_)) ?v_8)))) (let ((?v_9 (bvadd ?v_55 (_ bv4 32)))) (let ((?v_57 (bvadd ?v_9 (bvsub (bvadd (bvadd (bvadd ?v_9 (_ bv59 32)) (_ bv0 32)) ((_ zero_extend 16) _substvar_1232_)) ?v_9)))) (let ((?v_10 (bvadd ?v_57 (_ bv4 32))) (?v_56 ((_ zero_extend 16) _substvar_1104_))) (let ((?v_58 (bvadd ?v_10 (bvsub (bvadd (bvadd (bvadd ?v_10 (_ bv57 32)) ?v_56) ((_ zero_extend 16) _substvar_1234_)) ?v_10)))) (and true true true true true true true true true true true true true true true true true true true true true true true true (bvslt (bvadd ?v_58 (_ bv0 32)) (_ bv0 32)) true true true true true true true true true true true true true true true true true true true true true true true true true true true true true true true true true true true true true true true true true true true true true true true true true true true true true true true true true true true true true true true true true true true true true true true true true true true true true true true true true true true true true true true true true true true true true true true true true true true true true true true true true true true))))))))))))))))))))))))
(check-sat)
(exit)
